data/solutions/recovery/degenerate/intermediate/flexible/degenerate_intermediate_instance23/27.sol
Elapsed time: 100.07
Upper bound: 227270934.0
Planning weighted value: 8.93454562163e+11
C[0]=227270934.0
C[1]=227104636.0
C[2]=226985754.0
C[3]=226852648.0
C[4]=226038602.0
C[5]=225403630.0
C[6]=225339103.0
C[7]=225246231.0
C[8]=225173516.0
C[9]=225082508.0
C[10]=221908338.0
C[11]=0.0
y[0]=8
y[1]=8
y[2]=6
y[3]=0
y[4]=10
y[5]=4
y[6]=9
y[7]=2
y[8]=5
y[9]=5
y[10]=5
y[11]=1
y[12]=8
y[13]=10
y[14]=3
y[15]=7
y[16]=3
y[17]=10
y[18]=4
y[19]=9
y[20]=5
y[21]=10
y[22]=3
y[23]=0
y[24]=1
y[25]=3
y[26]=1
y[27]=5
y[28]=2
y[29]=1
y[30]=0
y[31]=5
y[32]=4
y[33]=9
y[34]=9
y[35]=2
y[36]=4
y[37]=0
y[38]=3
y[39]=8
y[40]=9
y[41]=5
y[42]=0
y[43]=4
y[44]=10
y[45]=2
y[46]=1
y[47]=3
y[48]=6
y[49]=4
y[50]=6
y[51]=10
y[52]=7
y[53]=3
y[54]=0
y[55]=8
y[56]=7
y[57]=2
y[58]=8
y[59]=0
y[60]=7
y[61]=1
y[62]=6
y[63]=6
y[64]=5
y[65]=6
y[66]=5
y[67]=10
y[68]=7
y[69]=3
y[70]=6
y[71]=5
y[72]=4
y[73]=9
y[74]=8
y[75]=10
y[76]=3
y[77]=8
