data/solutions/recovery/degenerate/intermediate/flexible/degenerate_intermediate_instance23/27.log

Log started (V12.6.3.0) Sat Apr 21 15:13:45 2018

New value for default parallel thread count: 1

Problem '/tmp/tmpbXE7Cd.pyomo.lp' read.
Read time = 0.01 sec. (0.85 ticks)

Problem name         : /tmp/tmpbXE7Cd.pyomo.lp
Objective sense      : Minimize
Variables            :     950  [Nneg: 1,  Binary: 936,  General Integer: 13]
Objective nonzeros   :       1
Linear constraints   :     182  [Less: 90,  Equal: 92]
  Nonzeros           :   61117
  RHS nonzeros       :     157

Variables            : Min LB: 0.000000         Max UB: 1.000000       
Objective nonzeros   : Min   : 1.000000         Max   : 1.000000       
Linear constraints   :
  Nonzeros           : Min   : 1.000000         Max   : 6.145599e+07   
  RHS nonzeros       : Min   : 1.000000         Max   : 8.000000       
Tried aggregator 2 times.
MIP Presolve eliminated 82 rows and 141 columns.
Aggregator did 5 substitutions.
Reduced MIP has 95 rows, 804 columns, and 2257 nonzeros.
Reduced MIP has 792 binaries, 12 generals, 0 SOSs, and 0 indicators.
Presolve time = 0.01 sec. (11.05 ticks)
Found incumbent of value 7.9746794e+08 after 0.01 sec. (12.60 ticks)
Probing time = 0.00 sec. (1.60 ticks)
Tried aggregator 1 time.
Reduced MIP has 95 rows, 804 columns, and 2257 nonzeros.
Reduced MIP has 792 binaries, 12 generals, 0 SOSs, and 0 indicators.
Presolve time = 0.00 sec. (1.15 ticks)
Probing time = 0.00 sec. (1.59 ticks)
Clique table members: 72.
MIP emphasis: balance optimality and feasibility.
MIP search method: dynamic search.
Parallel mode: none, using 1 thread.
Root relaxation solution time = 0.00 sec. (1.72 ticks)

        Nodes                                         Cuts/
   Node  Left     Objective  IInf  Best Integer    Best Bound    ItCnt     Gap

*     0+    0                       7.97468e+08        0.0000           100.00%
      0     0   2.25673e+08    28   7.97468e+08   2.25673e+08      148   71.70%
      0     0   2.25673e+08    36   7.97468e+08      Fract: 6      171   71.70%
      0     0   2.25673e+08    19   7.97468e+08      Fract: 1      177   71.70%
*     0+    0                       2.51718e+08   2.25673e+08            10.35%
*     0+    0                       2.47678e+08   2.25673e+08             8.88%
*     0+    0                       2.47518e+08   2.25673e+08             8.83%
*     0+    0                       2.42503e+08   2.25673e+08             6.94%
      0     2   2.25673e+08    13   2.42503e+08   2.25673e+08      177    6.94%
Elapsed time = 0.06 sec. (63.11 ticks, tree = 0.01 MB, solutions = 5)
*   498+  405                       2.39507e+08   2.25673e+08             5.78%
*   498+  403                       2.38748e+08   2.25673e+08             5.48%
*   498+  402                       2.38001e+08   2.25673e+08             5.18%
*   499+  399                       2.37073e+08   2.25673e+08             4.81%
*   499+  393                       2.34975e+08   2.25673e+08             3.96%
*   499+  385                       2.32813e+08   2.25673e+08             3.07%
*   499+  384                       2.32476e+08   2.25673e+08             2.93%
*   499+  384                       2.31999e+08   2.25673e+08             2.73%
    500   387   2.25673e+08    19   2.31999e+08   2.25673e+08     3173    2.73%
    501   388   2.25673e+08    20   2.31999e+08   2.25673e+08     3680    2.73%
    502   389   2.25673e+08    21   2.31999e+08   2.25673e+08     3682    2.73%
    503   390   2.25673e+08    23   2.31999e+08   2.25673e+08     3686    2.73%
    504   390   2.25673e+08    21   2.31999e+08   2.25673e+08     3687    2.73%
    505   391   2.25673e+08    23   2.31999e+08   2.25673e+08     3693    2.73%
    506   392   2.25673e+08    21   2.31999e+08   2.25673e+08     3695    2.73%
    507   393   2.25673e+08    21   2.31999e+08   2.25673e+08     3697    2.73%
    508   393   2.25673e+08    20   2.31999e+08   2.25673e+08     3704    2.73%
*   701+  253                       2.30984e+08   2.25673e+08             2.30%
*   701+  193                       2.30599e+08   2.25673e+08             2.14%
*   701+  157                       2.30501e+08   2.25673e+08             2.09%
*   701+  127                       2.30232e+08   2.25673e+08             1.98%
*   801+  107                       2.29881e+08   2.25673e+08             1.83%
    901   153   2.29321e+08    10   2.29881e+08   2.25673e+08     4931    1.83%
Elapsed time = 0.93 sec. (1094.09 ticks, tree = 0.09 MB, solutions = 18)
*  1001+  211                       2.29636e+08   2.25673e+08             1.73%
*  1001+  198                       2.29321e+08   2.25673e+08             1.59%
*  1101+  264                       2.29234e+08   2.25673e+08             1.55%
*  1101+  260                       2.28419e+08   2.25673e+08             1.20%
*  1601+  656                       2.28403e+08   2.25673e+08             1.20%
   2407  1243   2.26154e+08    27   2.28403e+08   2.25673e+08    11877    1.20%
   2408  1243   2.27083e+08    29   2.28403e+08   2.25673e+08    11897    1.20%
   2409  1243   2.27083e+08    29   2.28403e+08   2.25673e+08    11898    1.20%
   2410  1243   2.27083e+08    30   2.28403e+08   2.25673e+08    11899    1.20%
   2411  1244   2.27083e+08    30   2.28403e+08   2.25673e+08    11901    1.20%
   2412  1245   2.27083e+08    26   2.28403e+08   2.25673e+08    11910    1.20%
   2413  1246   2.27083e+08    26   2.28403e+08   2.25673e+08    11912    1.20%
   2414  1247   2.27083e+08    24   2.28403e+08   2.25673e+08    11915    1.20%
   2415  1248   2.27083e+08    25   2.28403e+08   2.25673e+08    11920    1.20%
   2416  1249   2.27083e+08    23   2.28403e+08   2.25673e+08    11921    1.20%
Elapsed time = 1.71 sec. (2053.65 ticks, tree = 0.72 MB, solutions = 23)
   5436  3614   2.25673e+08    22   2.28403e+08   2.25673e+08    32316    1.20%
   5437  3615   2.25673e+08    25   2.28403e+08   2.25673e+08    32323    1.20%
   5438  3616   2.25673e+08    29   2.28403e+08   2.25673e+08    32345    1.20%
   5439  3617   2.25673e+08    34   2.28403e+08   2.25673e+08    32349    1.20%
   5440  3618   2.25673e+08    33   2.28403e+08   2.25673e+08    32350    1.20%
   5441  3619   2.25673e+08    31   2.28403e+08   2.25673e+08    32351    1.20%
   5442  3620   2.25673e+08    33   2.28403e+08   2.25673e+08    32361    1.20%
   5443  3621   2.25734e+08    30   2.28403e+08   2.25673e+08    32366    1.20%
   5444  3622   2.25751e+08    30   2.28403e+08   2.25673e+08    32367    1.20%
   5445  3623   2.25771e+08    30   2.28403e+08   2.25673e+08    32368    1.20%
Elapsed time = 2.45 sec. (3009.25 ticks, tree = 2.13 MB, solutions = 23)
   9055  6796   2.25673e+08    21   2.28403e+08   2.25673e+08    55423    1.20%
   9056  6795        cutoff         2.28403e+08   2.25673e+08    55434    1.20%
   9057  6794        cutoff         2.28403e+08   2.25673e+08    55445    1.20%
   9058  6795   2.25755e+08    30   2.28403e+08   2.25673e+08    55486    1.20%
   9059  6796   2.26530e+08    30   2.28403e+08   2.25673e+08    55489    1.20%
   9060  6797   2.26530e+08    30   2.28403e+08   2.25673e+08    55490    1.20%
   9061  6798   2.26530e+08    29   2.28403e+08   2.25673e+08    55491    1.20%
   9062  6799   2.26530e+08    30   2.28403e+08   2.25673e+08    55492    1.20%
   9063  6799   2.26530e+08    29   2.28403e+08   2.25673e+08    55493    1.20%
   9064  6799   2.26746e+08    28   2.28403e+08   2.25673e+08    55497    1.20%
Elapsed time = 3.17 sec. (3965.67 ticks, tree = 3.97 MB, solutions = 23)
  10864  8285   2.25673e+08    27   2.28403e+08   2.25673e+08    70774    1.20%
  10865  8286   2.25673e+08    21   2.28403e+08   2.25673e+08    70785    1.20%
  10866  8287   2.25673e+08    22   2.28403e+08   2.25673e+08    70795    1.20%
  10867  8288   2.25673e+08    26   2.28403e+08   2.25673e+08    70807    1.20%
  10868  8289   2.25673e+08    25   2.28403e+08   2.25673e+08    70822    1.20%
  10869  8290   2.25673e+08    26   2.28403e+08   2.25673e+08    70834    1.20%
  10870  8291   2.25673e+08    26   2.28403e+08   2.25673e+08    70837    1.20%
  10871  8292   2.25673e+08    25   2.28403e+08   2.25673e+08    70840    1.20%
  10872  8293   2.25673e+08    25   2.28403e+08   2.25673e+08    70857    1.20%
  10873  8294   2.25673e+08    34   2.28403e+08   2.25673e+08    70877    1.20%
Elapsed time = 3.92 sec. (4921.71 ticks, tree = 5.04 MB, solutions = 23)
  14173 11149        cutoff         2.28403e+08   2.25673e+08    97902    1.20%
  14174 11148        cutoff         2.28403e+08   2.25673e+08    97923    1.20%
  14175 11147        cutoff         2.28403e+08   2.25673e+08    97943    1.20%
  14176 11146        cutoff         2.28403e+08   2.25673e+08    97966    1.20%
  14177 11145        cutoff         2.28403e+08   2.25673e+08    97984    1.20%
  14178 11144        cutoff         2.28403e+08   2.25673e+08    98023    1.20%
  14179 11143        cutoff         2.28403e+08   2.25673e+08    98053    1.20%
  14180 11144   2.25673e+08    24   2.28403e+08   2.25673e+08    98083    1.20%
  14181 11145   2.25673e+08    23   2.28403e+08   2.25673e+08    98086    1.20%
  14182 11146   2.25673e+08    25   2.28403e+08   2.25673e+08    98089    1.20%
Elapsed time = 4.63 sec. (5884.36 ticks, tree = 6.64 MB, solutions = 23)
  17421 13710        cutoff         2.28403e+08   2.25673e+08   125379    1.20%
  17422 13709        cutoff         2.28403e+08   2.25673e+08   125393    1.20%
  17423 13708        cutoff         2.28403e+08   2.25673e+08   125400    1.20%
  17424 13707    infeasible         2.28403e+08   2.25673e+08   125400    1.20%
  17425 13706        cutoff         2.28403e+08   2.25673e+08   125406    1.20%
  17426 13707   2.28285e+08    11   2.28403e+08   2.25673e+08   125460    1.20%
  17427 13708   2.28285e+08    14   2.28403e+08   2.25673e+08   125477    1.20%
  17428 13709   2.28285e+08    15   2.28403e+08   2.25673e+08   125482    1.20%
  17429 13710   2.28285e+08    14   2.28403e+08   2.25673e+08   125484    1.20%
  17430 13711   2.28285e+08    13   2.28403e+08   2.25673e+08   125492    1.20%
Elapsed time = 5.35 sec. (6843.06 ticks, tree = 8.10 MB, solutions = 23)
  19394 14645        cutoff         2.28403e+08   2.25673e+08   152951    1.20%
  19395 14645   2.27635e+08    20   2.28403e+08   2.25673e+08   152952    1.20%
  19396 14646   2.27635e+08    20   2.28403e+08   2.25673e+08   152953    1.20%
  19397 14646   2.27635e+08    20   2.28403e+08   2.25673e+08   152954    1.20%
  19398 14645        cutoff         2.28403e+08   2.25673e+08   152959    1.20%
  19399 14644    infeasible         2.28403e+08   2.25673e+08   152975    1.20%
  19400 14643        cutoff         2.28403e+08   2.25673e+08   152992    1.20%
  19401 14642        cutoff         2.28403e+08   2.25673e+08   153148    1.20%
  19402 14641        cutoff         2.28403e+08   2.25673e+08   153252    1.20%
  19403 14640    infeasible         2.28403e+08   2.25673e+08   153252    1.20%
Elapsed time = 6.07 sec. (7803.92 ticks, tree = 8.65 MB, solutions = 23)
  21313 15712   2.26569e+08    29   2.28403e+08   2.25673e+08   182492    1.20%
  21314 15713   2.26569e+08    30   2.28403e+08   2.25673e+08   182498    1.20%
  21315 15714   2.26569e+08    29   2.28403e+08   2.25673e+08   182499    1.20%
  21316 15715   2.26569e+08    29   2.28403e+08   2.25673e+08   182504    1.20%
  21317 15716   2.27032e+08    20   2.28403e+08   2.25673e+08   182518    1.20%
  21318 15717   2.27032e+08    20   2.28403e+08   2.25673e+08   182519    1.20%
  21319 15718   2.27032e+08    21   2.28403e+08   2.25673e+08   182528    1.20%
  21320 15717        cutoff         2.28403e+08   2.25673e+08   182530    1.20%
  21321 15717   2.27032e+08    17   2.28403e+08   2.25673e+08   182541    1.20%
  21322 15717   2.27032e+08    17   2.28403e+08   2.25673e+08   182542    1.20%
Elapsed time = 6.80 sec. (8765.89 ticks, tree = 9.31 MB, solutions = 23)
  23212 17068   2.25673e+08    23   2.28403e+08   2.25673e+08   209039    1.20%
  23213 17069   2.25673e+08    29   2.28403e+08   2.25673e+08   209040    1.20%
  23214 17070   2.25673e+08    31   2.28403e+08   2.25673e+08   209041    1.20%
  23215 17071   2.25673e+08    31   2.28403e+08   2.25673e+08   209043    1.20%
  23216 17072   2.25673e+08    23   2.28403e+08   2.25673e+08   209048    1.20%
  23217 17073   2.25673e+08    24   2.28403e+08   2.25673e+08   209052    1.20%
  23218 17074   2.25673e+08    25   2.28403e+08   2.25673e+08   209057    1.20%
  23219 17075   2.25673e+08    22   2.28403e+08   2.25673e+08   209070    1.20%
  23220 17076   2.25673e+08    23   2.28403e+08   2.25673e+08   209077    1.20%
  29368 21897    infeasible         2.28403e+08   2.25673e+08   291257    1.20%
Elapsed time = 9.58 sec. (12581.28 ticks, tree = 13.53 MB, solutions = 23)
  32889 24250   2.25673e+08    33   2.28403e+08   2.25673e+08   378752    1.20%
  32890 24251   2.25673e+08    33   2.28403e+08   2.25673e+08   378783    1.20%
  32891 24252   2.25673e+08    30   2.28403e+08   2.25673e+08   378789    1.20%
  32892 24253   2.25673e+08    30   2.28403e+08   2.25673e+08   378795    1.20%
  32893 24254   2.25673e+08    30   2.28403e+08   2.25673e+08   378796    1.20%
  32894 24255   2.25673e+08    30   2.28403e+08   2.25673e+08   378797    1.20%
  32895 24256   2.25673e+08    30   2.28403e+08   2.25673e+08   378798    1.20%
  32896 24257   2.25673e+08    30   2.28403e+08   2.25673e+08   378799    1.20%
  32897 24258   2.25673e+08    30   2.28403e+08   2.25673e+08   378800    1.20%
  32898 24259   2.25673e+08    30   2.28403e+08   2.25673e+08   378801    1.20%
Elapsed time = 12.28 sec. (16407.25 ticks, tree = 14.97 MB, solutions = 23)
* 34301+25068                       2.28321e+08   2.25673e+08             1.16%
* 34301+24987                       2.28280e+08   2.25673e+08             1.14%
  35301 25729   2.25673e+08    27   2.28280e+08   2.25673e+08   458616    1.14%
  35302 25730   2.25673e+08    27   2.28280e+08   2.25673e+08   458616    1.14%
  35303 25731   2.25673e+08    25   2.28280e+08   2.25673e+08   458643    1.14%
  35304 25732   2.25673e+08    29   2.28280e+08   2.25673e+08   458662    1.14%
  35305 25733   2.25673e+08    28   2.28280e+08   2.25673e+08   458667    1.14%
  35306 25734   2.25673e+08    31   2.28280e+08   2.25673e+08   458774    1.14%
  35307 25735   2.25673e+08    31   2.28280e+08   2.25673e+08   458776    1.14%
  35308 25736   2.25673e+08    32   2.28280e+08   2.25673e+08   458813    1.14%
  35309 25737   2.25673e+08    30   2.28280e+08   2.25673e+08   458838    1.14%
  35310 25738   2.25673e+08    29   2.28280e+08   2.25673e+08   458839    1.14%
Elapsed time = 15.08 sec. (20284.56 ticks, tree = 15.89 MB, solutions = 25)
* 37001+27130                       2.28211e+08   2.25673e+08             1.11%
* 37001+26483                       2.27875e+08   2.25673e+08             0.97%
  38643 27843   2.26732e+08    22   2.27875e+08   2.25673e+08   539005    0.97%
  38644 27842        cutoff         2.27875e+08   2.25673e+08   539012    0.97%
  38645 27841        cutoff         2.27875e+08   2.25673e+08   539016    0.97%
  38646 27840        cutoff         2.27875e+08   2.25673e+08   539278    0.97%
  38647 27839        cutoff         2.27875e+08   2.25673e+08   539419    0.97%
  38648 27838        cutoff         2.27875e+08   2.25673e+08   539448    0.97%
  38649 27837        cutoff         2.27875e+08   2.25673e+08   539635    0.97%
  38650 27838   2.26209e+08    33   2.27875e+08   2.25673e+08   539768    0.97%
  38651 27839   2.26209e+08    30   2.27875e+08   2.25673e+08   539772    0.97%
  38652 27840   2.26209e+08    33   2.27875e+08   2.25673e+08   539785    0.97%
Elapsed time = 17.83 sec. (24147.91 ticks, tree = 17.16 MB, solutions = 27)
* 39701+28424                       2.27675e+08   2.25673e+08             0.88%
* 41101+20766                       2.27363e+08   2.25673e+08             0.74%
  41906 21307   2.25673e+08    35   2.27363e+08   2.25673e+08   624494    0.74%
  41907 21308   2.25673e+08    35   2.27363e+08   2.25673e+08   624497    0.74%
  41908 21309   2.25673e+08    33   2.27363e+08   2.25673e+08   624511    0.74%
  41909 21310   2.25673e+08    39   2.27363e+08   2.25673e+08   624516    0.74%
  41910 21311   2.25673e+08    38   2.27363e+08   2.25673e+08   624518    0.74%
  41911 21312   2.25673e+08    31   2.27363e+08   2.25673e+08   624527    0.74%
  41912 21313   2.25673e+08    31   2.27363e+08   2.25673e+08   624529    0.74%
  41913 21314   2.25673e+08    36   2.27363e+08   2.25673e+08   624544    0.74%
  41914 21315   2.25673e+08    44   2.27363e+08   2.25673e+08   624751    0.74%
  41915 21316   2.25673e+08    41   2.27363e+08   2.25673e+08   624768    0.74%
Elapsed time = 20.57 sec. (27974.13 ticks, tree = 13.13 MB, solutions = 29)
  43725 22803   2.25673e+08    38   2.27363e+08   2.25673e+08   698860    0.74%
  43726 22804   2.25673e+08    39   2.27363e+08   2.25673e+08   698879    0.74%
  43727 22805   2.25673e+08    42   2.27363e+08   2.25673e+08   698895    0.74%
  43728 22806   2.25673e+08    38   2.27363e+08   2.25673e+08   698899    0.74%
  43729 22807   2.25673e+08    38   2.27363e+08   2.25673e+08   698971    0.74%
  43730 22808   2.25735e+08    36   2.27363e+08   2.25673e+08   698994    0.74%
  43731 22809   2.25735e+08    36   2.27363e+08   2.25673e+08   698996    0.74%
  43732 22810   2.25735e+08    35   2.27363e+08   2.25673e+08   699003    0.74%
  43733 22810   2.25735e+08    35   2.27363e+08   2.25673e+08   699010    0.74%
  43734 22810   2.25735e+08    34   2.27363e+08   2.25673e+08   699018    0.74%
Elapsed time = 23.22 sec. (31814.76 ticks, tree = 14.03 MB, solutions = 29)
  45500 24177   2.25673e+08    55   2.27363e+08   2.25673e+08   784853    0.74%
  45501 24178   2.25673e+08    54   2.27363e+08   2.25673e+08   784871    0.74%
  45502 24179   2.25673e+08    53   2.27363e+08   2.25673e+08   784872    0.74%
  45503 24180   2.25673e+08    50   2.27363e+08   2.25673e+08   784875    0.74%
  45504 24181   2.25673e+08    41   2.27363e+08   2.25673e+08   784904    0.74%
  45505 24182   2.25673e+08    39   2.27363e+08   2.25673e+08   784928    0.74%
  45506 24183   2.25673e+08    39   2.27363e+08   2.25673e+08   784940    0.74%
  45507 24184   2.25673e+08    35   2.27363e+08   2.25673e+08   784952    0.74%
  45508 24185   2.25673e+08    38   2.27363e+08   2.25673e+08   784983    0.74%
  45509 24186   2.25673e+08    39   2.27363e+08   2.25673e+08   785002    0.74%
Elapsed time = 25.88 sec. (35644.45 ticks, tree = 14.87 MB, solutions = 29)
  46879 25133   2.25673e+08    33   2.27363e+08   2.25673e+08   853521    0.74%
  46880 25134   2.25673e+08    34   2.27363e+08   2.25673e+08   853551    0.74%
  46881 25135   2.25673e+08    36   2.27363e+08   2.25673e+08   853569    0.74%
  46882 25136   2.25673e+08    36   2.27363e+08   2.25673e+08   853570    0.74%
  46883 25137   2.25673e+08    32   2.27363e+08   2.25673e+08   853579    0.74%
  46884 25138   2.25673e+08    26   2.27363e+08   2.25673e+08   853612    0.74%
  46885 25139   2.25673e+08    29   2.27363e+08   2.25673e+08   853639    0.74%
  46886 25140   2.25673e+08    31   2.27363e+08   2.25673e+08   853654    0.74%
  46887 25141   2.25673e+08    27   2.27363e+08   2.25673e+08   853656    0.74%
  46888 25142   2.25673e+08    27   2.27363e+08   2.25673e+08   853659    0.74%
Elapsed time = 28.49 sec. (39468.13 ticks, tree = 15.47 MB, solutions = 29)
  48498 26354   2.25724e+08    29   2.27363e+08   2.25673e+08   922592    0.74%
  48499 26354   2.25724e+08    29   2.27363e+08   2.25673e+08   922595    0.74%
  48500 26355   2.25724e+08    29   2.27363e+08   2.25673e+08   922605    0.74%
  48501 26355   2.27308e+08    24   2.27363e+08   2.25673e+08   922636    0.74%
  48502 26354        cutoff         2.27363e+08   2.25673e+08   922637    0.74%
  48503 26353    infeasible         2.27363e+08   2.25673e+08   922637    0.74%
  48504 26352    infeasible         2.27363e+08   2.25673e+08   922637    0.74%
  48505 26351    infeasible         2.27363e+08   2.25673e+08   922637    0.74%
  48506 26350    infeasible         2.27363e+08   2.25673e+08   922637    0.74%
  48507 26349    infeasible         2.27363e+08   2.25673e+08   922637    0.74%
Elapsed time = 31.11 sec. (43291.61 ticks, tree = 16.18 MB, solutions = 29)
* 48601+26039                       2.27271e+08   2.25673e+08             0.70%
  49770 26787   2.25673e+08    61   2.27271e+08   2.25673e+08   997057    0.70%
  49771 26788   2.25673e+08    63   2.27271e+08   2.25673e+08   997071    0.70%
  49772 26789   2.25673e+08    65   2.27271e+08   2.25673e+08   997085    0.70%
  49773 26790   2.25673e+08    52   2.27271e+08   2.25673e+08   997139    0.70%
  49774 26791   2.25673e+08    68   2.27271e+08   2.25673e+08   997525    0.70%
  49775 26792   2.25673e+08    62   2.27271e+08   2.25673e+08   997544    0.70%
  49776 26793   2.25673e+08    62   2.27271e+08   2.25673e+08   997548    0.70%
  49777 26792        cutoff         2.27271e+08   2.25673e+08   997671    0.70%
  49778 26793   2.25673e+08    65   2.27271e+08   2.25673e+08   997698    0.70%
  49779 26794   2.25673e+08    60   2.27271e+08   2.25673e+08   997793    0.70%
Elapsed time = 34.21 sec. (47772.51 ticks, tree = 18.10 MB, solutions = 30)
  51369 27646   2.25841e+08    35   2.27271e+08   2.25673e+08  1089282    0.70%
  51370 27647   2.25856e+08    34   2.27271e+08   2.25673e+08  1089286    0.70%
  51371 27648   2.25856e+08    34   2.27271e+08   2.25673e+08  1089287    0.70%
  51372 27649   2.25856e+08    35   2.27271e+08   2.25673e+08  1089288    0.70%
  51373 27650   2.25856e+08    46   2.27271e+08   2.25673e+08  1089305    0.70%
  51374 27651   2.25860e+08    48   2.27271e+08   2.25673e+08  1089329    0.70%
  51375 27652   2.25875e+08    36   2.27271e+08   2.25673e+08  1089364    0.70%
  51376 27653   2.25889e+08    39   2.27271e+08   2.25673e+08  1089375    0.70%
  51377 27654   2.25908e+08    39   2.27271e+08   2.25673e+08  1089401    0.70%
  51378 27655   2.25911e+08    39   2.27271e+08   2.25673e+08  1089430    0.70%
Elapsed time = 36.90 sec. (51601.99 ticks, tree = 18.92 MB, solutions = 30)
  53608 29413   2.25673e+08    37   2.27271e+08   2.25673e+08  1163967    0.70%
  53609 29414   2.25673e+08    34   2.27271e+08   2.25673e+08  1163968    0.70%
  53610 29415   2.25673e+08    38   2.27271e+08   2.25673e+08  1163970    0.70%
  53611 29416   2.25673e+08    29   2.27271e+08   2.25673e+08  1164000    0.70%
  53612 29417   2.25673e+08    31   2.27271e+08   2.25673e+08  1164014    0.70%
  53613 29418   2.25673e+08    31   2.27271e+08   2.25673e+08  1164020    0.70%
  53614 29419   2.25673e+08    30   2.27271e+08   2.25673e+08  1164022    0.70%
  53615 29420   2.25673e+08    28   2.27271e+08   2.25673e+08  1164065    0.70%
  53616 29421   2.25673e+08    23   2.27271e+08   2.25673e+08  1164066    0.70%
  53617 29422   2.25673e+08    28   2.27271e+08   2.25673e+08  1164076    0.70%
Elapsed time = 39.82 sec. (55424.99 ticks, tree = 20.16 MB, solutions = 30)
  56040 31436   2.25673e+08    25   2.27271e+08   2.25673e+08  1243658    0.70%
  56041 31437   2.25673e+08    24   2.27271e+08   2.25673e+08  1243690    0.70%
  56042 31438   2.25673e+08    23   2.27271e+08   2.25673e+08  1243694    0.70%
  56043 31439   2.25673e+08    33   2.27271e+08   2.25673e+08  1243754    0.70%
  56044 31440   2.25673e+08    32   2.27271e+08   2.25673e+08  1243766    0.70%
  56045 31441   2.25673e+08    31   2.27271e+08   2.25673e+08  1243767    0.70%
  56046 31442   2.25673e+08    30   2.27271e+08   2.25673e+08  1243769    0.70%
  56047 31443   2.25673e+08    31   2.27271e+08   2.25673e+08  1243771    0.70%
  56048 31444   2.25673e+08    31   2.27271e+08   2.25673e+08  1243773    0.70%
  56049 31445   2.25673e+08    31   2.27271e+08   2.25673e+08  1243776    0.70%
Elapsed time = 43.43 sec. (59244.96 ticks, tree = 21.73 MB, solutions = 30)
  58883 33990   2.26149e+08    32   2.27271e+08   2.25673e+08  1325663    0.70%
  58884 33989        cutoff         2.27271e+08   2.25673e+08  1325667    0.70%
  58885 33988        cutoff         2.27271e+08   2.25673e+08  1325673    0.70%
  58886 33987        cutoff         2.27271e+08   2.25673e+08  1325911    0.70%
  58887 33988   2.25673e+08    40   2.27271e+08   2.25673e+08  1326119    0.70%
  58888 33989   2.25673e+08    35   2.27271e+08   2.25673e+08  1326135    0.70%
  58889 33990   2.25673e+08    30   2.27271e+08   2.25673e+08  1326162    0.70%
  58890 33991   2.25673e+08    35   2.27271e+08   2.25673e+08  1326184    0.70%
  58891 33992   2.25673e+08    34   2.27271e+08   2.25673e+08  1326186    0.70%
  58892 33993   2.25673e+08    26   2.27271e+08   2.25673e+08  1326224    0.70%
Elapsed time = 47.10 sec. (63088.30 ticks, tree = 24.45 MB, solutions = 30)
  60601 35185   2.26569e+08    33   2.27271e+08   2.25673e+08  1399104    0.70%
  60602 35186   2.26569e+08    40   2.27271e+08   2.25673e+08  1399108    0.70%
  60603 35187   2.26569e+08    40   2.27271e+08   2.25673e+08  1399111    0.70%
  60604 35186        cutoff         2.27271e+08   2.25673e+08  1399122    0.70%
  60605 35187   2.26569e+08    38   2.27271e+08   2.25673e+08  1399127    0.70%
  60606 35188   2.26569e+08    38   2.27271e+08   2.25673e+08  1399132    0.70%
  60607 35189   2.26569e+08    38   2.27271e+08   2.25673e+08  1399135    0.70%
  60608 35190   2.26569e+08    38   2.27271e+08   2.25673e+08  1399138    0.70%
  60609 35191   2.26649e+08    34   2.27271e+08   2.25673e+08  1399191    0.70%
  60610 35190        cutoff         2.27271e+08   2.25673e+08  1399219    0.70%
Elapsed time = 50.78 sec. (66950.33 ticks, tree = 25.34 MB, solutions = 30)
  62601 36774   2.26634e+08    18   2.27271e+08   2.25673e+08  1483760    0.70%
  62602 36775   2.26634e+08    17   2.27271e+08   2.25673e+08  1483761    0.70%
  62603 36776   2.26634e+08    15   2.27271e+08   2.25673e+08  1483762    0.70%
  62604 36777   2.26634e+08    13   2.27271e+08   2.25673e+08  1483771    0.70%
  62605 36776        cutoff         2.27271e+08   2.25673e+08  1483787    0.70%
  62606 36775        cutoff         2.27271e+08   2.25673e+08  1483793    0.70%
  62607 36774    infeasible         2.27271e+08   2.25673e+08  1483845    0.70%
  62608 36775   2.25673e+08    34   2.27271e+08   2.25673e+08  1484042    0.70%
  62609 36776   2.25673e+08    29   2.27271e+08   2.25673e+08  1484158    0.70%
  62610 36777   2.25673e+08    26   2.27271e+08   2.25673e+08  1484167    0.70%
Elapsed time = 54.49 sec. (70806.89 ticks, tree = 26.40 MB, solutions = 30)
  64142 37770   2.25673e+08    53   2.27271e+08   2.25673e+08  1568831    0.70%
  64143 37771   2.25673e+08    69   2.27271e+08   2.25673e+08  1568847    0.70%
  64144 37772   2.25673e+08    67   2.27271e+08   2.25673e+08  1568849    0.70%
  64145 37773   2.25673e+08    56   2.27271e+08   2.25673e+08  1568878    0.70%
  64146 37774   2.25673e+08    55   2.27271e+08   2.25673e+08  1568880    0.70%
  64147 37775   2.25673e+08    55   2.27271e+08   2.25673e+08  1568881    0.70%
  64148 37776   2.25673e+08    38   2.27271e+08   2.25673e+08  1568955    0.70%
  64149 37775        cutoff         2.27271e+08   2.25673e+08  1568999    0.70%
  64150 37776   2.25673e+08    39   2.27271e+08   2.25673e+08  1569002    0.70%
  64151 37777   2.25673e+08    50   2.27271e+08   2.25673e+08  1569113    0.70%
Elapsed time = 58.50 sec. (74843.97 ticks, tree = 27.11 MB, solutions = 30)
  65292 38539   2.25673e+08    58   2.27271e+08   2.25673e+08  1631229    0.70%
  65293 38540   2.25673e+08    55   2.27271e+08   2.25673e+08  1631294    0.70%
  65294 38541   2.25673e+08    51   2.27271e+08   2.25673e+08  1631330    0.70%
  65295 38542   2.25673e+08    51   2.27271e+08   2.25673e+08  1631344    0.70%
  65296 38543   2.25673e+08    47   2.27271e+08   2.25673e+08  1631345    0.70%
  65297 38544   2.25673e+08    45   2.27271e+08   2.25673e+08  1631349    0.70%
  65298 38545   2.25673e+08    45   2.27271e+08   2.25673e+08  1631352    0.70%
  65299 38546   2.25936e+08    34   2.27271e+08   2.25673e+08  1631384    0.70%
  65300 38545        cutoff         2.27271e+08   2.25673e+08  1631392    0.70%
  65301 38544        cutoff         2.27271e+08   2.25673e+08  1631397    0.70%
Elapsed time = 62.59 sec. (78995.20 ticks, tree = 27.71 MB, solutions = 30)
  66131 39162   2.25673e+08    49   2.27271e+08   2.25673e+08  1713216    0.70%
  66132 39163   2.25673e+08    43   2.27271e+08   2.25673e+08  1713468    0.70%
  66133 39164   2.25673e+08    56   2.27271e+08   2.25673e+08  1713474    0.70%
  66134 39165   2.25673e+08    57   2.27271e+08   2.25673e+08  1713484    0.70%
  66135 39166   2.25673e+08    35   2.27271e+08   2.25673e+08  1713502    0.70%
  66136 39167   2.25797e+08    50   2.27271e+08   2.25673e+08  1713671    0.70%
  66137 39168   2.25797e+08    46   2.27271e+08   2.25673e+08  1713699    0.70%
  66138 39169   2.25797e+08    43   2.27271e+08   2.25673e+08  1713710    0.70%
  66139 39170   2.25797e+08    40   2.27271e+08   2.25673e+08  1713722    0.70%
  66140 39171   2.25797e+08    39   2.27271e+08   2.25673e+08  1713725    0.70%
Elapsed time = 67.09 sec. (83462.87 ticks, tree = 28.40 MB, solutions = 30)
  67601 40167   2.25673e+08    39   2.27271e+08   2.25673e+08  1797682    0.70%
  67602 40166        cutoff         2.27271e+08   2.25673e+08  1797713    0.70%
  67603 40167   2.25673e+08    31   2.27271e+08   2.25673e+08  1797843    0.70%
  67604 40168   2.25969e+08    30   2.27271e+08   2.25673e+08  1797949    0.70%
  67605 40169   2.25969e+08    27   2.27271e+08   2.25673e+08  1797952    0.70%
  67606 40168        cutoff         2.27271e+08   2.25673e+08  1797960    0.70%
  67607 40167    infeasible         2.27271e+08   2.25673e+08  1797960    0.70%
  67608 40166    infeasible         2.27271e+08   2.25673e+08  1797960    0.70%
  67609 40165        cutoff         2.27271e+08   2.25673e+08  1798109    0.70%
  67610 40164    infeasible         2.27271e+08   2.25673e+08  1798170    0.70%
Elapsed time = 70.89 sec. (87354.00 ticks, tree = 29.25 MB, solutions = 30)
  69746 41815        cutoff         2.27271e+08   2.25673e+08  1876096    0.70%
  69747 41816   2.25673e+08    54   2.27271e+08   2.25673e+08  1876247    0.70%
  69748 41817   2.25673e+08    49   2.27271e+08   2.25673e+08  1876260    0.70%
  69749 41818   2.25673e+08    45   2.27271e+08   2.25673e+08  1876274    0.70%
  69750 41819   2.25673e+08    41   2.27271e+08   2.25673e+08  1876289    0.70%
  69751 41820   2.25673e+08    37   2.27271e+08   2.25673e+08  1876435    0.70%
  69752 41821   2.25673e+08    39   2.27271e+08   2.25673e+08  1876439    0.70%
  69753 41822   2.25673e+08    49   2.27271e+08   2.25673e+08  1876624    0.70%
  69754 41823   2.25673e+08    42   2.27271e+08   2.25673e+08  1876637    0.70%
  69755 41824   2.25673e+08    42   2.27271e+08   2.25673e+08  1876653    0.70%
Elapsed time = 74.68 sec. (91196.88 ticks, tree = 30.40 MB, solutions = 30)
  71709 43102   2.26962e+08    31   2.27271e+08   2.25673e+08  1954685    0.70%
  71710 43103   2.26963e+08    29   2.27271e+08   2.25673e+08  1954686    0.70%
  71711 43104   2.26963e+08    31   2.27271e+08   2.25673e+08  1954698    0.70%
  71712 43105   2.27032e+08    32   2.27271e+08   2.25673e+08  1954752    0.70%
  71713 43105   2.27032e+08    32   2.27271e+08   2.25673e+08  1954753    0.70%
  71714 43106   2.27041e+08    34   2.27271e+08   2.25673e+08  1954769    0.70%
  71715 43107   2.27055e+08    30   2.27271e+08   2.25673e+08  1954791    0.70%
  71716 43108   2.27055e+08    31   2.27271e+08   2.25673e+08  1954816    0.70%
  71717 43109   2.27056e+08    31   2.27271e+08   2.25673e+08  1954828    0.70%
  71718 43108        cutoff         2.27271e+08   2.25673e+08  1954835    0.70%
Elapsed time = 78.51 sec. (95018.38 ticks, tree = 31.34 MB, solutions = 30)
  73993 44812        cutoff         2.27271e+08   2.25673e+08  2040305    0.70%
  73994 44811        cutoff         2.27271e+08   2.25673e+08  2040417    0.70%
  73995 44812   2.25673e+08    28   2.27271e+08   2.25673e+08  2040509    0.70%
  73996 44813   2.25673e+08    27   2.27271e+08   2.25673e+08  2040551    0.70%
  73997 44814   2.25673e+08    26   2.27271e+08   2.25673e+08  2040554    0.70%
  73998 44815   2.25673e+08    31   2.27271e+08   2.25673e+08  2040577    0.70%
  73999 44816   2.25673e+08    29   2.27271e+08   2.25673e+08  2040578    0.70%
  74000 44817   2.25673e+08    29   2.27271e+08   2.25673e+08  2040580    0.70%
  74001 44818   2.25673e+08    28   2.27271e+08   2.25673e+08  2040582    0.70%
  74002 44819   2.25673e+08    26   2.27271e+08   2.25673e+08  2040584    0.70%
Elapsed time = 82.22 sec. (98844.54 ticks, tree = 32.37 MB, solutions = 30)
  76250 46534   2.25673e+08    26   2.27271e+08   2.25673e+08  2119467    0.70%
  76251 46534   2.25975e+08    28   2.27271e+08   2.25673e+08  2119650    0.70%
  76252 46533        cutoff         2.27271e+08   2.25673e+08  2119658    0.70%
  76253 46534   2.25673e+08    60   2.27271e+08   2.25673e+08  2119799    0.70%
  76254 46535   2.25673e+08    38   2.27271e+08   2.25673e+08  2119817    0.70%
  76255 46536   2.25673e+08    36   2.27271e+08   2.25673e+08  2119819    0.70%
  76256 46537   2.25673e+08    34   2.27271e+08   2.25673e+08  2119822    0.70%
  76257 46538   2.25673e+08    35   2.27271e+08   2.25673e+08  2119876    0.70%
  76258 46539   2.25673e+08    32   2.27271e+08   2.25673e+08  2119881    0.70%
  76259 46540   2.25673e+08    35   2.27271e+08   2.25673e+08  2119909    0.70%
Elapsed time = 85.94 sec. (102691.23 ticks, tree = 33.45 MB, solutions = 30)
  79092 48759   2.26576e+08    24   2.27271e+08   2.25673e+08  2187223    0.70%
  79093 48760   2.26576e+08    24   2.27271e+08   2.25673e+08  2187224    0.70%
  79094 48761   2.26576e+08    24   2.27271e+08   2.25673e+08  2187225    0.70%
  79095 48760        cutoff         2.27271e+08   2.25673e+08  2187227    0.70%
  79096 48759    infeasible         2.27271e+08   2.25673e+08  2187227    0.70%
  79097 48760   2.25673e+08    26   2.27271e+08   2.25673e+08  2187398    0.70%
  79098 48761   2.25673e+08    26   2.27271e+08   2.25673e+08  2187412    0.70%
  79099 48762   2.25673e+08    26   2.27271e+08   2.25673e+08  2187414    0.70%
  79100 48763   2.25702e+08    22   2.27271e+08   2.25673e+08  2187447    0.70%
  79101 48764   2.26281e+08    20   2.27271e+08   2.25673e+08  2187453    0.70%
Elapsed time = 89.58 sec. (106514.64 ticks, tree = 34.96 MB, solutions = 30)
  80601 50004   2.25673e+08    34   2.27271e+08   2.25673e+08  2246385    0.70%
  80602 50005   2.25673e+08    31   2.27271e+08   2.25673e+08  2246397    0.70%
  80603 50006   2.25673e+08    35   2.27271e+08   2.25673e+08  2246417    0.70%
  80604 50007   2.25673e+08    34   2.27271e+08   2.25673e+08  2246425    0.70%
  80605 50008   2.25673e+08    33   2.27271e+08   2.25673e+08  2246432    0.70%
  80606 50009   2.25673e+08    34   2.27271e+08   2.25673e+08  2246458    0.70%
  80607 50010   2.25673e+08    36   2.27271e+08   2.25673e+08  2246464    0.70%
  80608 50011   2.25673e+08    35   2.27271e+08   2.25673e+08  2246565    0.70%
  80609 50012   2.25673e+08    34   2.27271e+08   2.25673e+08  2246581    0.70%
  80610 50013   2.25673e+08    30   2.27271e+08   2.25673e+08  2246592    0.70%
Elapsed time = 93.30 sec. (110680.64 ticks, tree = 35.75 MB, solutions = 30)
  82315 51397   2.25673e+08    31   2.27271e+08   2.25673e+08  2300088    0.70%
  82316 51398   2.25673e+08    33   2.27271e+08   2.25673e+08  2300101    0.70%
  82317 51399   2.25673e+08    31   2.27271e+08   2.25673e+08  2300129    0.70%
  82318 51400   2.25673e+08    33   2.27271e+08   2.25673e+08  2300132    0.70%
  82319 51401   2.25673e+08    32   2.27271e+08   2.25673e+08  2300138    0.70%
  82320 51402   2.25673e+08    32   2.27271e+08   2.25673e+08  2300141    0.70%
  82321 51403   2.25673e+08    35   2.27271e+08   2.25673e+08  2300146    0.70%
  82322 51404   2.25673e+08    32   2.27271e+08   2.25673e+08  2300150    0.70%
  82323 51405   2.25673e+08    31   2.27271e+08   2.25673e+08  2300174    0.70%
  82324 51406   2.25673e+08    29   2.27271e+08   2.25673e+08  2300179    0.70%
Elapsed time = 96.66 sec. (114500.09 ticks, tree = 36.65 MB, solutions = 30)

GUB cover cuts applied:  2
Cover cuts applied:  453
Mixed integer rounding cuts applied:  15
Zero-half cuts applied:  2
Gomory fractional cuts applied:  6

Root node processing (before b&c):
  Real time             =    0.06 sec. (63.29 ticks)
Sequential b&c:
  Real time             =   99.94 sec. (117408.59 ticks)
                          ------------
Total (root+branch&cut) =  100.00 sec. (117471.88 ticks)

Solution pool: 30 solutions saved.

MIP - Time limit exceeded, integer feasible:  Objective =  2.2727093400e+08
Current MIP best bound =  2.2567326400e+08 (gap = 1.59767e+06, 0.70%)
Solution time =  100.00 sec.  Iterations = 2352359  Nodes = 84190 (52830)
Deterministic time = 117471.89 ticks  (1174.71 ticks/sec)


Incumbent solution written to file '/tmp/tmpqK4j9m.cplex.sol'.
